NAME : R106.7930.tour
COMMENT : Cost = 0_7930
COMMENT : Found by LKH [Keld Helsgaun] Wed Sep 13 18:32:59 2017
TYPE : TOUR
DIMENSION : 58
TOUR_SECTION
1
51
34
30
25
13
56
49
48
37
50
47
18
6
52
8
20
12
11
21
33
32
58
3
16
41
7
53
46
9
19
57
43
15
45
17
39
44
38
14
54
28
29
2
31
10
36
35
4
55
22
40
24
42
23
5
26
27
-1
EOF
